$instance size is  200
letting capacity be  49143
letting items be new type enum { 
a1,a2,a3,a4,a5,a6,a7,a8,a9,a10,a11,a12,a13,a14,a15,a16,a17,a18,a19,a20,a21,a22,a23,a24,a25,a26,a27,a28,a29,a30,a31,a32,a33,a34,a35,a36,a37,a38,a39,a40,a41,a42,a43,a44,a45,a46,a47,a48,a49,a50,a51,a52,a53,a54,a55,a56,a57,a58,a59,a60,a61,a62,a63,a64,a65,a66,a67,a68,a69,a70,a71,a72,a73,a74,a75,a76,a77,a78,a79,a80,a81,a82,a83,a84,a85,a86,a87,a88,a89,a90,a91,a92,a93,a94,a95,a96,a97,a98,a99,a100,a101,a102,a103,a104,a105,a106,a107,a108,a109,a110,a111,a112,a113,a114,a115,a116,a117,a118,a119,a120,a121,a122,a123,a124,a125,a126,a127,a128,a129,a130,a131,a132,a133,a134,a135,a136,a137,a138,a139,a140,a141,a142,a143,a144,a145,a146,a147,a148,a149,a150,a151,a152,a153,a154,a155,a156,a157,a158,a159,a160,a161,a162,a163,a164,a165,a166,a167,a168,a169,a170,a171,a172,a173,a174,a175,a176,a177,a178,a179,a180,a181,a182,a183,a184,a185,a186,a187,a188,a189,a190,a191,a192,a193,a194,a195,a196,a197,a198,a199,a200
}
letting weight be function (
a1 --> 586,a2 --> 915,a3 --> 156,a4 --> 272,a5 --> 278,a6 --> 629,a7 --> 198,a8 --> 632,a9 --> 435,a10 --> 991,a11 --> 971,a12 --> 15,a13 --> 383,a14 --> 822,a15 --> 83,a16 --> 640,a17 --> 170,a18 --> 470,a19 --> 687,a20 --> 6,a21 --> 286,a22 --> 347,a23 --> 472,a24 --> 564,a25 --> 693,a26 --> 483,a27 --> 404,a28 --> 532,a29 --> 294,a30 --> 917,a31 --> 377,a32 --> 716,a33 --> 80,a34 --> 931,a35 --> 600,a36 --> 217,a37 --> 205,a38 --> 979,a39 --> 683,a40 --> 904,a41 --> 568,a42 --> 986,a43 --> 134,a44 --> 503,a45 --> 63,a46 --> 927,a47 --> 865,a48 --> 913,a49 --> 185,a50 --> 30,a51 --> 939,a52 --> 479,a53 --> 215,a54 --> 409,a55 --> 1000,a56 --> 494,a57 --> 423,a58 --> 560,a59 --> 92,a60 --> 199,a61 --> 420,a62 --> 698,a63 --> 278,a64 --> 394,a65 --> 623,a66 --> 729,a67 --> 309,a68 --> 874,a69 --> 865,a70 --> 538,a71 --> 877,a72 --> 307,a73 --> 285,a74 --> 474,a75 --> 171,a76 --> 390,a77 --> 338,a78 --> 9,a79 --> 20,a80 --> 884,a81 --> 271,a82 --> 754,a83 --> 402,a84 --> 702,a85 --> 925,a86 --> 25,a87 --> 686,a88 --> 547,a89 --> 168,a90 --> 259,a91 --> 166,a92 --> 706,a93 --> 590,a94 --> 449,a95 --> 184,a96 --> 147,a97 --> 781,a98 --> 36,a99 --> 165,a100 --> 361,a101 --> 153,a102 --> 226,a103 --> 807,a104 --> 666,a105 --> 859,a106 --> 767,a107 --> 978,a108 --> 13,a109 --> 698,a110 --> 869,a111 --> 998,a112 --> 770,a113 --> 174,a114 --> 780,a115 --> 434,a116 --> 149,a117 --> 71,a118 --> 89,a119 --> 466,a120 --> 131,a121 --> 546,a122 --> 699,a123 --> 610,a124 --> 587,a125 --> 236,a126 --> 881,a127 --> 161,a128 --> 542,a129 --> 116,a130 --> 21,a131 --> 631,a132 --> 607,a133 --> 532,a134 --> 707,a135 --> 510,a136 --> 52,a137 --> 321,a138 --> 482,a139 --> 483,a140 --> 722,a141 --> 230,a142 --> 457,a143 --> 726,a144 --> 76,a145 --> 180,a146 --> 115,a147 --> 213,a148 --> 555,a149 --> 541,a150 --> 419,a151 --> 493,a152 --> 15,a153 --> 996,a154 --> 864,a155 --> 601,a156 --> 580,a157 --> 678,a158 --> 457,a159 --> 400,a160 --> 909,a161 --> 659,a162 --> 354,a163 --> 778,a164 --> 349,a165 --> 93,a166 --> 405,a167 --> 411,a168 --> 616,a169 --> 966,a170 --> 913,a171 --> 511,a172 --> 326,a173 --> 518,a174 --> 798,a175 --> 395,a176 --> 680,a177 --> 243,a178 --> 102,a179 --> 746,a180 --> 617,a181 --> 855,a182 --> 518,a183 --> 477,a184 --> 613,a185 --> 981,a186 --> 378,a187 --> 233,a188 --> 796,a189 --> 308,a190 --> 419,a191 --> 757,a192 --> 64,a193 --> 674,a194 --> 484,a195 --> 984,a196 --> 154,a197 --> 697,a198 --> 968,a199 --> 695,a200 --> 872
)
letting gain be function (
a1 --> 588,a2 --> 915,a3 --> 156,a4 --> 273,a5 --> 279,a6 --> 630,a7 --> 198,a8 --> 633,a9 --> 435,a10 --> 993,a11 --> 972,a12 --> 15,a13 --> 384,a14 --> 822,a15 --> 84,a16 --> 642,a17 --> 171,a18 --> 471,a19 --> 687,a20 --> 6,a21 --> 288,a22 --> 348,a23 --> 474,a24 --> 564,a25 --> 693,a26 --> 483,a27 --> 405,a28 --> 534,a29 --> 294,a30 --> 918,a31 --> 378,a32 --> 717,a33 --> 81,a34 --> 933,a35 --> 600,a36 --> 219,a37 --> 207,a38 --> 981,a39 --> 684,a40 --> 906,a41 --> 570,a42 --> 987,a43 --> 135,a44 --> 504,a45 --> 63,a46 --> 927,a47 --> 867,a48 --> 915,a49 --> 186,a50 --> 30,a51 --> 939,a52 --> 480,a53 --> 216,a54 --> 411,a55 --> 1002,a56 --> 495,a57 --> 423,a58 --> 561,a59 --> 93,a60 --> 201,a61 --> 420,a62 --> 699,a63 --> 279,a64 --> 396,a65 --> 624,a66 --> 729,a67 --> 309,a68 --> 876,a69 --> 867,a70 --> 540,a71 --> 879,a72 --> 309,a73 --> 285,a74 --> 474,a75 --> 171,a76 --> 390,a77 --> 339,a78 --> 9,a79 --> 21,a80 --> 885,a81 --> 273,a82 --> 756,a83 --> 402,a84 --> 702,a85 --> 927,a86 --> 27,a87 --> 687,a88 --> 549,a89 --> 168,a90 --> 261,a91 --> 168,a92 --> 708,a93 --> 591,a94 --> 450,a95 --> 186,a96 --> 147,a97 --> 783,a98 --> 36,a99 --> 165,a100 --> 363,a101 --> 153,a102 --> 228,a103 --> 807,a104 --> 666,a105 --> 861,a106 --> 768,a107 --> 978,a108 --> 15,a109 --> 699,a110 --> 870,a111 --> 999,a112 --> 771,a113 --> 174,a114 --> 780,a115 --> 435,a116 --> 150,a117 --> 72,a118 --> 90,a119 --> 468,a120 --> 132,a121 --> 546,a122 --> 699,a123 --> 612,a124 --> 588,a125 --> 237,a126 --> 882,a127 --> 162,a128 --> 543,a129 --> 117,a130 --> 21,a131 --> 633,a132 --> 609,a133 --> 534,a134 --> 708,a135 --> 510,a136 --> 54,a137 --> 321,a138 --> 483,a139 --> 483,a140 --> 723,a141 --> 231,a142 --> 459,a143 --> 726,a144 --> 78,a145 --> 180,a146 --> 117,a147 --> 213,a148 --> 555,a149 --> 543,a150 --> 420,a151 --> 495,a152 --> 15,a153 --> 996,a154 --> 864,a155 --> 603,a156 --> 582,a157 --> 678,a158 --> 459,a159 --> 402,a160 --> 909,a161 --> 660,a162 --> 354,a163 --> 780,a164 --> 351,a165 --> 93,a166 --> 405,a167 --> 411,a168 --> 618,a169 --> 966,a170 --> 915,a171 --> 513,a172 --> 327,a173 --> 519,a174 --> 798,a175 --> 396,a176 --> 681,a177 --> 243,a178 --> 102,a179 --> 747,a180 --> 618,a181 --> 855,a182 --> 519,a183 --> 477,a184 --> 615,a185 --> 981,a186 --> 378,a187 --> 234,a188 --> 798,a189 --> 309,a190 --> 420,a191 --> 759,a192 --> 66,a193 --> 675,a194 --> 486,a195 --> 984,a196 --> 156,a197 --> 699,a198 --> 969,a199 --> 696,a200 --> 873
)
